20J6M/DAT/20J6MULL-9.dat
20 6
38.2941 38.2941
15.044 15.044
13.7323 13.7323
44.9114 44.9114
6.2365 6.2365
24.6144 24.6144
30.995 30.995
39.9362 39.9362
5.2191 5.2191
19.82 19.82
12.7831 12.7831
34.0984 34.0984
38.5928 38.5928
38.7129 38.7129
26.4289 26.4289
20.5917 20.5917
28.4638 28.4638
14.313 14.313
1.3759 1.3759
0.7102 0.7102
75.8123