20J6M/SOL/20J6MULL-9.sol
solution status: optimal solution found
objective value:                     75.8122833333333
x#1#1                                               1 	(obj:0)
x#2#6                                               1 	(obj:0)
x#3#5                                               1 	(obj:0)
x#4#2                               0.330180459007438 	(obj:0)
x#4#3                                0.44570532203405 	(obj:0)
x#4#4                               0.224114218958512 	(obj:0)
x#5#5                                               1 	(obj:0)
x#6#3                               0.881460987606171 	(obj:0)
x#6#5                               0.118539012393829 	(obj:0)
x#7#6                                               1 	(obj:0)
x#8#4                                               1 	(obj:0)
x#9#4                                               1 	(obj:0)
x#10#2                                              1 	(obj:0)
x#11#5                                              1 	(obj:0)
x#12#3                                              1 	(obj:0)
x#13#2                                              1 	(obj:0)
x#14#1                              0.969139055284759 	(obj:0)
x#14#2                             0.0308609447152413 	(obj:0)
x#15#5                                              1 	(obj:0)
x#16#4                                              1 	(obj:0)
x#17#5                              0.456844014736847 	(obj:0)
x#17#6                              0.543155985263153 	(obj:0)
x#18#6                                              1 	(obj:0)
x#19#2                                              1 	(obj:0)
x#20#5                                              1 	(obj:0)
z                                    75.8122833333333 	(obj:1)
